%%% static parameters %%%
timespan = 1;
Fact = [2];
Distr1 = [5];
Distr2 = [10];
Clients_N = [100];
Demand_W = [15];
Lt0 = [4];
Lt1 = [4];
SS_ = [0.85];
DS_D = [8];
K = [200];
MA = [500];
%%% dynamic parameters %%%
lost_ratio_sales_ret_th = 0.08553073010934564;
lost_ratio_sales_ret_w = 43;
lost_ratio_sales_dis_th = 0.0701466857710149;
lost_ratio_sales_dis_w = 93;
lost_ratio_sales_fac_th = 0.37016496904889173;
lost_ratio_sales_fac_w = 27;
stock_customer_MA_mean_relative_th = 0.8144761756689041;
stock_customer_MA_mean_relative_w = 5;
stock_distributor_MA_mean_relative_th = 0.6137730216976335;
stock_distributor_MA_mean_relative_w = 20;
stock_retailer_MA_mean_relative_th = 0.561345803731224;
stock_retailer_MA_mean_relative_w = 95;
stock_factory_MA_mean_relative_th = 0.7158205060133401;
stock_factory_MA_mean_relative_w = 30;
